0 1550
1 1463
2 1391
3 1391
4 1391
5 1391
6 1334
7 1321
8 1321
9 1321
10 1321
11 1321
12 1316
13 1289
14 1278
15 1278
16 1278
17 1278
18 1278
19 1256
20 1218
21 1218
22 1218
23 1218
24 1218
25 1218
26 1203
27 1175
28 1175
29 1175
30 1175
31 1175
32 1175
33 1168
34 1168
35 1162
36 1150
37 1150
38 1150
39 1150
40 1150
41 1150
42 1150
43 1150
44 1150
45 1150
46 1150
47 1150
48 1150
49 1150
50 1150
51 1150
52 1150
53 1150
54 1150
55 1150
56 1150
57 1150
58 1150
59 1150
60 1150
61 1150
62 1150
63 1150
64 1150
65 1150
66 1150
67 1150
68 1150
69 1150
70 1150
71 1150
72 1150
73 1150
74 1150
75 1150
76 1150
77 1150
78 1150
79 1150
80 1150
81 1150
82 1150
83 1150
84 1150
85 1150
86 1150
87 1150
88 1150
89 1150
90 1150
91 1150
92 1150
93 1150
94 1150
95 1150
96 1150
97 1150
98 1150
99 1150
100 1150
101 1150
102 1150
103 1150
104 1150
105 1150
106 1150
107 1150
108 1150
109 1150
110 1150
111 1150
112 1150
113 1150
114 1150
115 1150
116 1150
117 1150
118 1150
119 1150
120 1150
121 1150
122 1150
123 1150
124 1150
125 1150
126 1150
127 1150
128 1150
129 1150
130 1150
131 1150
132 1150
133 1150
134 1150
135 1150
136 1150
137 1150
138 1150
139 1150
140 1150
141 1150
142 1150
143 1150
144 1150
145 1150
146 1150
147 1150
148 1150
149 1150
150 1150
151 1150
152 1150
153 1150
154 1150
155 1150
156 1150
157 1150
158 1150
159 1150
160 1150
161 1150
162 1150
163 1150
164 1150
165 1150
166 1150
167 1150
168 1150
169 1150
170 1150
171 1150
172 1150
173 1150
174 1150
175 1150
176 1150
177 1150
178 1150
179 1150
180 1150
181 1150
182 1150
183 1150
184 1150
185 1150
186 1150
187 1150
188 1150
189 1150
190 1150
191 1150
192 1150
193 1150
194 1150
195 1150
196 1150
197 1150
198 1150
199 1150
200 1150
201 1150
202 1150
203 1150
204 1150
205 1150
206 1150
207 1150
208 1150
209 1150
210 1150
211 1150
212 1150
213 1150
214 1150
215 1150
216 1150
217 1150
218 1150
219 1150
220 1150
221 1150
222 1150
223 1150
224 1150
225 1150
226 1150
227 1150
228 1150
229 1150
230 1150
231 1150
232 1150
233 1150
234 1150
235 1150
236 1150
237 1150
238 1150
239 1150
240 1150
241 1150
242 1150
243 1150
244 1150
245 1150
246 1150
247 1150
248 1150
249 1150
250 1150
251 1150
252 1150
253 1150
254 1150
255 1150
256 1150
257 1150
258 1150
259 1150
260 1150
261 1150
262 1150
263 1150
264 1150
265 1150
266 1150
267 1150
268 1150
269 1150
270 1150
271 1150
272 1150
273 1150
274 1150
275 1150
276 1150
277 1150
278 1150
279 1150
280 1150
281 1150
282 1150
283 1150
284 1150
285 1150
286 1150
287 1150
288 1150
289 1150
290 1150
291 1150
292 1150
293 1150
294 1150
295 1150
296 1150
297 1150
298 1150
299 1150
300 1150
301 1150
302 1150
303 1150
304 1150
305 1150
306 1150
307 1150
308 1150
309 1150
310 1150
311 1150
312 1150
313 1150
314 1150
315 1150
316 1150
317 1150
318 1150
319 1150
320 1150
321 1150
322 1150
323 1150
324 1150
325 1150
326 1150
327 1150
328 1150
329 1150
330 1150
331 1150
332 1150
333 1150
334 1150
335 1150
336 1150
337 1150
338 1150
339 1150
340 1150
341 1150
342 1150
343 1150
344 1150
345 1150
346 1150
347 1150
348 1150
349 1150
350 1150
351 1150
352 1150
353 1150
354 1150
355 1150
356 1150
357 1150
358 1150
359 1150
360 1150
361 1150
362 1150
363 1150
364 1150
365 1150
366 1150
367 1150
368 1150
369 1150
370 1150
371 1150
372 1150
373 1150
374 1150
375 1150
376 1150
377 1150
378 1150
379 1150
380 1150
381 1150
382 1150
383 1150
384 1150
385 1150
386 1150
387 1150
388 1150
389 1150
390 1150
391 1150
392 1150
393 1150
394 1150
395 1150
396 1150
397 1150
398 1150
399 1150
400 1150
401 1150
402 1150
403 1150
404 1150
405 1150
406 1150
407 1150
408 1150
409 1150
410 1150
411 1150
412 1150
413 1150
414 1150
415 1150
416 1150
417 1150
418 1150
419 1150
420 1150
421 1150
422 1150
423 1150
424 1150
425 1150
426 1150
427 1150
428 1150
429 1150
430 1150
431 1150
432 1150
433 1150
434 1150
435 1150
436 1150
437 1150
438 1150
439 1150
440 1150
441 1150
442 1150
443 1150
444 1150
445 1150
446 1150
447 1150
448 1150
449 1150
450 1150
451 1150
452 1150
453 1150
454 1150
455 1150
456 1150
457 1150
458 1150
459 1150
460 1150
461 1150
462 1150
463 1150
464 1150
465 1150
466 1150
467 1150
468 1150
469 1150
470 1150
471 1150
472 1150
473 1150
474 1150
475 1150
476 1150
477 1150
478 1150
479 1150
480 1150
481 1150
482 1150
483 1150
484 1150
485 1150
486 1150
487 1150
488 1150
489 1150
490 1150
491 1150
492 1150
493 1150
494 1150
495 1150
496 1150
497 1150
498 1150
499 1150
500 1150
501 1150
502 1150
503 1150
504 1150
505 1150
506 1150
507 1150
508 1150
509 1150
510 1150
511 1150
512 1150
513 1150
514 1150
515 1150
516 1150
517 1150
518 1150
519 1150
520 1150
521 1150
522 1150
523 1150
524 1150
525 1150
526 1150
527 1150
528 1150
529 1150
530 1150
531 1150
532 1150
533 1150
534 1150
535 1150
536 1150
537 1150
538 1150
539 1150
540 1150
541 1150
542 1150
543 1150
544 1150
545 1150
546 1150
547 1150
548 1150
549 1150
550 1150
551 1150
552 1150
553 1150
554 1150
555 1150
556 1150
557 1150
558 1150
559 1150
560 1150
561 1150
562 1150
563 1150
564 1150
565 1150
566 1150
567 1150
568 1150
569 1150
570 1150
571 1150
572 1150
573 1150
574 1150
575 1150
576 1150
577 1150
578 1150
579 1150
580 1150
581 1150
582 1150
583 1150
584 1150
585 1150
586 1150
587 1150
588 1150
589 1150
590 1150
591 1150
592 1150
593 1150
594 1150
595 1150
596 1150
597 1150
598 1150
599 1150
600 1150
601 1150
602 1150
603 1150
604 1150
605 1150
606 1150
607 1150
608 1150
609 1150
610 1150
611 1150
612 1150
613 1150
614 1150
615 1150
616 1150
617 1150
618 1150
619 1150
620 1150
621 1150
622 1150
623 1150
624 1150
625 1150
626 1150
627 1150
628 1150
629 1150
630 1150
631 1150
632 1150
633 1150
634 1150
635 1150
636 1150
637 1150
638 1150
639 1150
640 1150
641 1150
642 1150
643 1150
644 1150
645 1150
646 1150
647 1150
648 1150
649 1150
650 1150
651 1150
652 1150
653 1150
654 1150
655 1150
656 1150
657 1150
658 1150
659 1150
660 1150
661 1150
662 1150
663 1150
664 1150
665 1150
666 1150
667 1150
668 1150
669 1150
670 1150
671 1150
672 1150
673 1150
674 1150
675 1150
676 1150
677 1150
678 1150
679 1150
680 1150
681 1150
682 1150
683 1150
684 1150
685 1150
686 1150
687 1150
688 1150
689 1150
690 1150
691 1150
692 1150
693 1150
694 1150
695 1150
696 1150
697 1150
698 1150
699 1150
700 1150
701 1150
702 1150
703 1150
704 1150
705 1150
706 1150
707 1150
708 1150
709 1150
710 1150
711 1150
712 1150
713 1150
714 1150
715 1150
716 1150
717 1150
718 1150
719 1150
720 1150
721 1150
722 1150
723 1150
724 1150
725 1150
726 1150
727 1150
728 1150
729 1150
730 1150
731 1150
732 1150
733 1150
734 1150
735 1150
736 1150
737 1150
738 1150
739 1150
740 1150
741 1150
742 1150
743 1150
744 1150
745 1150
746 1150
747 1150
748 1150
749 1150
750 1150
751 1150
752 1150
753 1150
754 1150
755 1150
756 1150
757 1150
758 1150
759 1150
760 1150
761 1150
762 1150
763 1150
764 1150
765 1150
766 1150
767 1150
768 1150
769 1150
770 1150
771 1150
772 1150
773 1150
774 1150
775 1150
776 1150
777 1150
778 1150
779 1150
780 1150
781 1150
782 1150
783 1150
784 1150
785 1150
786 1150
787 1150
788 1150
789 1150
790 1150
791 1150
792 1150
793 1150
794 1150
795 1150
796 1150
797 1150
798 1150
799 1150
800 1150
801 1150
802 1150
803 1150
804 1150
805 1150
806 1150
807 1150
808 1150
809 1150
810 1150
811 1150
812 1150
813 1150
814 1150
815 1150
816 1150
817 1150
818 1150
819 1150
820 1150
821 1150
822 1150
823 1150
824 1150
825 1150
826 1150
827 1150
828 1150
829 1150
830 1150
831 1150
832 1150
833 1150
834 1150
835 1150
836 1150
837 1150
838 1150
839 1150
840 1150
841 1150
842 1150
843 1150
844 1150
845 1150
846 1150
847 1150
848 1150
849 1150
850 1150
851 1150
852 1150
853 1150
854 1150
855 1150
856 1150
857 1150
858 1150
859 1150
860 1150
861 1150
862 1150
863 1150
864 1150
865 1150
866 1150
867 1150
868 1150
869 1150
870 1150
871 1150
872 1150
873 1150
874 1150
875 1150
876 1150
877 1150
878 1150
879 1150
880 1150
881 1150
882 1150
883 1150
884 1150
885 1150
886 1150
887 1150
888 1150
889 1150
890 1150
891 1150
892 1150
893 1150
894 1150
895 1150
896 1150
897 1150
898 1150
899 1150
900 1150
901 1150
902 1150
903 1150
904 1150
905 1150
906 1150
907 1150
908 1150
909 1150
910 1150
911 1150
912 1150
913 1150
914 1150
915 1150
916 1150
917 1150
918 1150
919 1150
920 1150
921 1150
922 1150
923 1150
924 1150
925 1150
926 1150
927 1150
928 1150
929 1150
930 1150
931 1150
932 1150
933 1150
934 1150
935 1150
936 1150
937 1150
938 1150
939 1150
940 1150
941 1150
942 1150
943 1150
944 1150
945 1150
946 1150
947 1150
948 1150
949 1150
950 1150
951 1150
952 1150
953 1150
954 1150
955 1150
956 1150
957 1150
958 1150
959 1150
960 1150
961 1150
962 1150
963 1150
964 1150
965 1150
966 1150
967 1150
968 1150
969 1150
970 1150
971 1150
972 1150
973 1150
974 1150
975 1150
976 1150
977 1150
978 1150
979 1150
980 1150
981 1150
982 1150
983 1150
984 1150
985 1150
986 1150
987 1150
988 1150
989 1150
990 1150
991 1150
992 1150
993 1150
994 1150
995 1150
996 1150
997 1150
998 1150
999 1150
